AoPS/c7h2817896p24890752.smt2
(set-info :smt-lib-version 2.6)
(set-logic AUFNIRA)
(set-info :source |
Generated by: Mirek Olšák, Mikoláš Janota, Chad E. Brown
Generated on: 2024-04-14
Application: Mathematics challenges involving function synthesis
From a collection by: Vít Musil
Source url: https://prase.cz/library/FunkcionalniRovniceVM/FunkcionalniRovniceVM.pdf
Original source: c7h2817896p24890752
|)
(set-info :license "https://creativecommons.org/licenses/by-nc/4.0/")
(set-info :category "crafted")
(set-info :status sat)

; Header
(declare-fun F (Real) Real)

; Equations
(assert (forall ((x Real)) (distinct x 0.0)))
(assert (forall ((x Real)) (distinct x 1.0)))
(assert (forall ((x Real)) (= (+ (F x) (F (/ (- x 1.0) x))) (+ 1.0 x))))

; Find all possible F

(check-sat)
(exit)
(get-model)
